c Instancia generada aleatoriamente
p edge 20 52
e 1 9
e 1 16
e 2 4
e 2 5
e 2 6
e 2 7
e 2 9
e 2 12
e 2 17
e 3 16
e 3 18
e 4 9
e 4 15
e 4 16
e 4 18
e 5 10
e 5 15
e 5 17
e 5 18
e 6 7
e 6 8
e 6 9
e 6 10
e 6 14
e 7 8
e 7 9
e 7 14
e 7 15
e 8 9
e 8 15
e 8 18
e 8 19
e 9 11
e 9 14
e 9 16
e 9 17
e 10 11
e 11 13
e 11 14
e 11 17
e 11 20
e 12 14
e 12 17
e 13 18
e 14 17
e 14 19
e 14 20
e 15 16
e 15 17
e 16 17
e 16 20
e 17 19
